NAME : compression
TYPE : TSP
DIMENSION : 50
EDGE_WEIGHT_TYPE : EUC_2D
NODE_COORD_SECTION
1 75025 832622
2 73185 274120
3 188098 589041
4 832714 191398
5 450851 253624
6 871324 442383
7 860139 736797
8 156004 559504
9 176307 633543
10 513373 274957
11 631179 422470
12 166736 550482
13 656452 867672
14 774623 3215
15 828836 573400
16 886638 280042
17 781296 456906
18 193213 598274
19 396638 772324
20 938463 213686
21 43367 751287
22 919188 943045
23 171202 631619
24 509190 230053
25 683959 910373
26 458400 647573
27 215187 637938
28 244547 554375
29 885318 613049
30 992647 288426
31 573330 767722
32 183629 615142
33 777336 932245
34 96394 816749
35 550117 233150
36 84988 207138
37 930644 139150
38 248718 576035
39 526969 259487
40 689534 425362
41 205367 620213
42 123365 472196
43 631609 349244
44 172225 560390
45 968888 701771
46 68976 707020
47 874495 509893
48 204268 658608
49 212107 576487
50 680795 874941
EOF
